280631
[0, 1, 4, 2, 3, 5, 6, 7, 8, 9, 10, 11, 12, 13, 14, 15, 16, 17, 18, 19, 20, 21, 22, 23, 24, 25, 26, 27, 28, 29, 30, 31, 32, 33, 34, 35, 36, 37, 38, 39, 40, 41, 42, 43, 44, 47, 46, 45, 308, 309, 310, 311, 312, 313, 314, 315, 318, 317, 316, 319, 320, 321, 322, 323, 324, 325, 326, 327, 328, 329, 330, 331, 332, 333, 334, 335, 336, 337, 338, 339, 340, 341, 342, 343, 344, 345, 346, 347, 348, 349, 350, 351, 352, 353, 354, 355, 356, 357, 358, 359, 360, 361, 362, 363, 364, 365, 366, 367, 368, 369, 370, 371, 372, 373, 374, 375, 376, 377, 378, 380, 379, 381, 382, 383, 384, 385, 386, 387, 388, 389, 390, 391, 392, 393, 394, 395, 396, 397, 399, 398, 400, 401, 402, 288, 289, 290, 291, 292, 293, 294, 295, 307, 306, 305, 304, 990, 296, 297, 299, 298, 283, 284, 285, 286, 287, 403, 404, 405, 406, 407, 408, 409, 410, 411, 412, 414, 413, 415, 416, 417, 420, 421, 419, 418, 426, 425, 424, 423, 422, 461, 460, 427, 428, 429, 431, 430, 996, 434, 435, 436, 437, 439, 445, 433, 432, 446, 444, 443, 442, 441, 440, 438, 631, 630, 629, 628, 606, 605, 607, 604, 608, 609, 610, 611, 612, 613, 614, 615, 616, 617, 618, 619, 620, 621, 622, 623, 624, 625, 626, 627, 991, 632, 633, 634, 635, 636, 637, 638, 639, 640, 641, 642, 643, 646, 645, 644, 647, 648, 649, 650, 651, 652, 653, 654, 655, 656, 657, 658, 659, 660, 661, 662, 663, 664, 665, 666, 667, 668, 669, 670, 671, 672, 673, 674, 675, 676, 677, 678, 679, 680, 681, 682, 683, 684, 685, 686, 687, 688, 689, 690, 691, 692, 693, 694, 695, 696, 705, 706, 708, 707, 709, 710, 711, 712, 713, 714, 715, 716, 717, 718, 719, 720, 721, 722, 723, 724, 725, 727, 726, 728, 729, 730, 731, 750, 749, 748, 747, 746, 745, 732, 733, 734, 735, 736, 738, 737, 743, 744, 742, 741, 740, 739, 702, 701, 703, 704, 697, 698, 699, 700, 968, 971, 970, 969, 986, 985, 987, 988, 989, 984, 983, 982, 981, 980, 979, 978, 977, 976, 975, 974, 973, 972, 967, 966, 965, 964, 963, 962, 961, 960, 959, 958, 957, 956, 954, 955, 953, 992, 952, 951, 950, 949, 948, 947, 946, 945, 944, 943, 942, 941, 940, 939, 938, 937, 936, 935, 934, 933, 932, 931, 930, 929, 928, 927, 925, 926, 924, 923, 922, 921, 920, 919, 918, 917, 916, 915, 903, 904, 905, 902, 900, 901, 899, 898, 906, 907, 1000, 908, 909, 910, 914, 913, 912, 911, 781, 782, 780, 779, 778, 777, 776, 775, 772, 774, 773, 771, 770, 769, 767, 768, 766, 765, 764, 763, 762, 999, 754, 753, 752, 751, 789, 790, 791, 793, 792, 788, 755, 756, 757, 758, 760, 761, 759, 783, 784, 785, 787, 786, 800, 801, 802, 803, 804, 805, 806, 808, 809, 810, 819, 811, 812, 841, 842, 850, 851, 857, 856, 855, 854, 853, 852, 849, 848, 847, 846, 845, 844, 843, 894, 896, 897, 895, 893, 892, 891, 890, 889, 888, 887, 885, 886, 884, 883, 882, 881, 880, 879, 878, 877, 876, 875, 874, 873, 872, 871, 870, 869, 868, 867, 866, 865, 864, 863, 862, 860, 861, 859, 858, 1001, 837, 838, 839, 836, 835, 834, 833, 832, 831, 830, 829, 828, 825, 826, 827, 816, 815, 814, 840, 813, 817, 818, 822, 823, 824, 821, 820, 807, 799, 798, 797, 796, 795, 794, 603, 602, 601, 600, 599, 597, 598, 596, 595, 594, 593, 592, 591, 590, 589, 588, 587, 586, 585, 583, 584, 448, 447, 449, 450, 451, 452, 453, 454, 455, 456, 457, 458, 459, 462, 463, 464, 465, 466, 467, 468, 469, 470, 471, 472, 473, 474, 475, 476, 479, 478, 477, 997, 582, 581, 580, 579, 578, 577, 576, 575, 574, 572, 573, 571, 570, 569, 568, 567, 566, 565, 564, 563, 562, 561, 560, 559, 557, 558, 556, 555, 554, 553, 552, 551, 550, 549, 548, 547, 546, 545, 544, 543, 542, 541, 540, 539, 538, 537, 536, 535, 534, 532, 533, 531, 530, 529, 528, 527, 526, 525, 524, 523, 522, 521, 520, 519, 518, 517, 516, 515, 514, 513, 480, 481, 482, 483, 484, 512, 511, 510, 509, 998, 508, 507, 506, 505, 504, 503, 502, 501, 500, 497, 498, 499, 488, 487, 486, 485, 489, 490, 491, 492, 493, 494, 495, 496, 213, 214, 215, 212, 210, 211, 216, 217, 218, 219, 220, 221, 222, 223, 224, 225, 226, 227, 228, 230, 229, 231, 232, 233, 234, 235, 236, 237, 238, 239, 241, 240, 185, 184, 183, 182, 186, 187, 188, 189, 190, 191, 192, 193, 194, 195, 201, 196, 200, 197, 198, 199, 207, 208, 209, 206, 204, 205, 203, 202, 995, 181, 180, 179, 178, 177, 176, 175, 174, 173, 172, 169, 170, 171, 168, 167, 166, 165, 164, 163, 162, 161, 160, 159, 158, 157, 156, 155, 154, 153, 152, 994, 251, 250, 242, 243, 245, 244, 246, 249, 248, 247, 259, 260, 261, 262, 263, 264, 265, 266, 267, 268, 270, 269, 271, 272, 273, 274, 275, 276, 277, 278, 279, 280, 281, 282, 300, 301, 302, 303, 112, 113, 114, 115, 117, 111, 110, 109, 108, 107, 106, 993, 102, 101, 100, 99, 131, 130, 129, 128, 127, 126, 125, 121, 122, 123, 124, 103, 104, 105, 118, 116, 119, 120, 256, 257, 258, 255, 254, 253, 252, 149, 150, 151, 148, 147, 146, 145, 144, 143, 142, 141, 140, 139, 138, 137, 136, 135, 134, 133, 132, 98, 97, 96, 95, 94, 93, 92, 91, 90, 89, 88, 87, 85, 86, 84, 83, 48, 49, 50, 52, 51, 82, 81, 80, 79, 78, 77, 76, 75, 74, 73, 53, 54, 55, 56, 57, 58, 59, 60, 61, 62, 63, 64, 65, 66, 67, 68, 69, 71, 72, 70]
